# Solution for model GasLib-40
# Objective value = 1.0306866929984491e+01
loadshed[innode_1] 0
loadshed[innode_2] 0
loadshed[innode_3] 0
loadshed[innode_4] 0
loadshed[innode_5] 0
loadshed[innode_6] 0
loadshed[innode_7] 0
loadshed[innode_8] 0
loadshed[source_1] -2.1341884587899429e-01
loadshed[source_2] -4.3249685720008424e-02
loadshed[source_3] 3.2186461496894392e-01
loadshed[sink_1] 0
loadshed[sink_2] 0
loadshed[sink_3] 0
loadshed[sink_4] 0
loadshed[sink_5] 0
loadshed[sink_6] 0
loadshed[sink_7] 0
loadshed[sink_8] 0
loadshed[sink_9] 0
loadshed[sink_10] 0
loadshed[sink_11] 0
loadshed[sink_12] 6.3022880590987962e-01
loadshed[sink_13] 0
loadshed[sink_14] 0
loadshed[sink_15] 0
loadshed[sink_16] 0
loadshed[sink_17] 0
loadshed[sink_18] 0
loadshed[sink_19] 0
loadshed[sink_20] 0
loadshed[sink_21] 0
loadshed[sink_22] 0
loadshed[sink_23] 0
loadshed[sink_24] 0
loadshed[sink_25] 0
loadshed[sink_26] 0
loadshed[sink_27] 0
loadshed[sink_28] 0
loadshed[sink_29] 0
flow[source_1,sink_3] 1.9182972240580074e+02
flow[innode_1,sink_16] 1.6354166666666970e+01
flow[innode_6,sink_13] 7.2725552761669974e+00
flow[sink_13,sink_14] -9.08161139049967
flow[sink_14,sink_10] -2.5435778057166317e+01
flow[sink_25,sink_26] 1.7392221403998292e+02
flow[sink_26,sink_9] 1.2300378988561269e+02
flow[sink_9,sink_18] 1.0664962321894602e+02
flow[sink_26,sink_4] 3.4564257487703628e+01
flow[sink_4,sink_20] -2.8375085696699557e+01
flow[sink_18,sink_6] 9.0295456552279347e+01
flow[sink_25,innode_8] -1.5912138907246435e+02
flow[sink_6,sink_7] 4.1232956552279120e+01
flow[sink_6,sink_22] 3.2708333333333641e+01
flow[sink_7,sink_24] 3.8755633070015513e+01
flow[sink_22,sink_1] 1.6354166666666970e+01
flow[sink_24,sink_21] 2.2401466403348845e+01
flow[sink_21,sink_12] 6.0472997366821781e+00
flow[sink_7,sink_5] -1.3876843184402929e+01
flow[sink_5,sink_17] -3.0231009851069643e+01
flow[sink_17,sink_4] -4.6585176517736315e+01
flow[sink_17,sink_8] 0
flow[sink_3,sink_23] 16.3541666666697
flow[sink_8,sink_20] -1.6354166666668334e+01
flow[sink_25,sink_20] 6.1083419030034605e+01
flow[sink_25,sink_15] -9.9510965940387621e+01
flow[sink_15,sink_29] -6.4386899277227315e+01
flow[sink_29,sink_28] 1.6354166666667879e+01
flow[sink_29,sink_2] 6.7832399996493677e+01
flow[sink_2,sink_15] 5.1478233329826935e+01
flow[sink_29,innode_7] -1.6492763260705550e+02
flow[innode_4,sink_19] 4.1060151174469979e+01
flow[sink_19,innode_3] 0
flow[innode_4,innode_5] 6.6146460216029936e+01
flow[sink_27,innode_5] -6.6146460216029936e+01
flow[sink_27,sink_19] 4.9792293549363308e+01
flow[sink_10,sink_11] 3.2708333333333641e+01
flow[sink_10,innode_2] -7.4498278057166942e+01
flow[sink_10,innode_3] 0
flow[innode_6,sink_25] -7.2725552761669974e+00
flow[sink_11,innode_1] 1.6354166666666970e+01
flow[sink_19,innode_2] 7.4498278057166942e+01
flow[source_3,innode_4] 1.0720661139049994e+02
flow[source_2,innode_7] 1.6492763260705550e+02
flow[sink_3,innode_8] 1.5912138907246435e+02
pressure[innode_1] 75.2605556631704
pressure[innode_2] 7.9349798654060734e+01
pressure[innode_3] 7.5412256970773939e+01
pressure[innode_4] 81.01325
pressure[innode_5] 8.0967750976749770e+01
pressure[innode_6] 7.4233020448931057e+01
pressure[innode_7] 81.01325
pressure[innode_8] 8.0372036519607533e+01
pressure[source_1] 81.01325
pressure[source_2] 81.01325
pressure[source_3] 81.01325
pressure[sink_1] 4.6250550380406118e+01
pressure[sink_2] 7.4883810685601929e+01
pressure[sink_3] 8.0372036519607533e+01
pressure[sink_4] 5.7589191899668648e+01
pressure[sink_5] 5.3556868345142817e+01
pressure[sink_6] 4.8351627990793489e+01
pressure[sink_7] 4.7785597781823633e+01
pressure[sink_8] 5.8531264699737960e+01
pressure[sink_9] 5.4621686764250484e+01
pressure[sink_10] 7.5412256970773939e+01
pressure[sink_11] 75.2605556631704
pressure[sink_12] 1.0132499999999998e+00
pressure[sink_13] 7.4192928067050431e+01
pressure[sink_14] 7.4209180384215969e+01
pressure[sink_15] 7.4715745599399924e+01
pressure[sink_16] 7.4238905828352713e+01
pressure[sink_17] 5.5808860063032043e+01
pressure[sink_18] 5.0762785525644212e+01
pressure[sink_19] 7.9349798654060734e+01
pressure[sink_20] 5.9670920123326248e+01
pressure[sink_21] 3.1652102163153075e+00
pressure[sink_22] 4.7314319522761124e+01
pressure[sink_23] 8.0207318507947747e+01
pressure[sink_24] 3.4132856432878471e+00
pressure[sink_25] 7.4233020448931057e+01
pressure[sink_26] 6.1983781052947151e+01
pressure[sink_27] 8.0418857582473009e+01
pressure[sink_28] 7.6306799657402522e+01
pressure[sink_29] 76.6020819310197
interdiction[source_1,sink_3] 0
interdiction[innode_1,sink_16] 0
interdiction[innode_6,sink_13] 0
interdiction[sink_13,sink_14] 0
interdiction[sink_14,sink_10] 0
interdiction[sink_25,sink_26] 0
interdiction[sink_26,sink_9] 0
interdiction[sink_9,sink_18] 0
interdiction[sink_26,sink_4] 0
interdiction[sink_4,sink_20] 0
interdiction[sink_18,sink_6] 0
interdiction[sink_25,innode_8] 0
interdiction[sink_6,sink_7] 0
interdiction[sink_6,sink_22] 0
interdiction[sink_7,sink_24] 0
interdiction[sink_22,sink_1] 0
interdiction[sink_24,sink_21] 0
interdiction[sink_21,sink_12] 0
interdiction[sink_7,sink_5] 0
interdiction[sink_5,sink_17] 0
interdiction[sink_17,sink_4] 0
interdiction[sink_17,sink_8] 1
interdiction[sink_3,sink_23] 0
interdiction[sink_8,sink_20] 0
interdiction[sink_25,sink_20] 0
interdiction[sink_25,sink_15] 0
interdiction[sink_15,sink_29] 0
interdiction[sink_29,sink_28] 0
interdiction[sink_29,sink_2] 0
interdiction[sink_2,sink_15] 0
interdiction[sink_29,innode_7] 0
interdiction[innode_4,sink_19] 0
interdiction[sink_19,innode_3] 1
interdiction[innode_4,innode_5] 0
interdiction[sink_27,innode_5] 0
interdiction[sink_27,sink_19] 0
interdiction[sink_10,sink_11] 0
interdiction[sink_10,innode_2] 0
interdiction[sink_10,innode_3] 0
interdiction[innode_6,sink_25] 0
interdiction[sink_11,innode_1] 0
interdiction[sink_19,innode_2] 0
interdiction[source_3,innode_4] 0
interdiction[source_2,innode_7] 0
interdiction[sink_3,innode_8] 0
WCcheckFlow[source_1,sink_3] 39
WCcheckFlow[innode_1,sink_16] 1
WCcheckFlow[innode_6,sink_13] 13
WCcheckFlow[sink_13,sink_14] 12
WCcheckFlow[sink_14,sink_10] 11
WCcheckFlow[sink_25,sink_26] 15
WCcheckFlow[sink_26,sink_9] 11
WCcheckFlow[sink_9,sink_18] 10
WCcheckFlow[sink_26,sink_4] 3
WCcheckFlow[sink_4,sink_20] 2
WCcheckFlow[sink_18,sink_6] 9
WCcheckFlow[sink_25,innode_8] -36
WCcheckFlow[sink_6,sink_7] 6
WCcheckFlow[sink_6,sink_22] 2
WCcheckFlow[sink_7,sink_24] 3
WCcheckFlow[sink_22,sink_1] 1
WCcheckFlow[sink_24,sink_21] 2
WCcheckFlow[sink_21,sink_12] 1
WCcheckFlow[sink_7,sink_5] 2
WCcheckFlow[sink_5,sink_17] 1
WCcheckFlow[sink_17,sink_4] 0
WCcheckFlow[sink_17,sink_8] 0
WCcheckFlow[sink_3,sink_23] 1
WCcheckFlow[sink_8,sink_20] -1
WCcheckFlow[sink_25,sink_20] 0
WCcheckFlow[sink_25,sink_15] 6
WCcheckFlow[sink_15,sink_29] 5
WCcheckFlow[sink_29,sink_28] 1
WCcheckFlow[sink_29,sink_2] 1
WCcheckFlow[sink_2,sink_15] 0
WCcheckFlow[sink_29,innode_7] 2
WCcheckFlow[innode_4,sink_19] -4
WCcheckFlow[sink_19,innode_3] 0
WCcheckFlow[innode_4,innode_5] 2
WCcheckFlow[sink_27,innode_5] -1
WCcheckFlow[sink_27,sink_19] 0
WCcheckFlow[sink_10,sink_11] 3
WCcheckFlow[sink_10,innode_2] 6
WCcheckFlow[sink_10,innode_3] 1
WCcheckFlow[innode_6,sink_25] -14
WCcheckFlow[sink_11,innode_1] 2
WCcheckFlow[sink_19,innode_2] -5
WCcheckFlow[source_3,innode_4] -1
WCcheckFlow[source_2,innode_7] -1
WCcheckFlow[sink_3,innode_8] 37
